p cnf 386 460
-8 -10 -20 21 22 0
-8 -10 -20 21 -22 0
-8 -10 -20 -21 23 0
-8 -10 -20 -21 -23 0
-6 20 -13 24 25 0
-6 20 -13 24 -25 0
-6 20 -13 -24 26 0
-6 20 -13 -24 -26 0
9 14 19 27 28 0
9 14 19 27 -28 0
9 14 19 -27 29 0
9 14 19 -27 -29 0
5 9 12 30 31 0
5 9 12 30 -31 0
5 9 12 -30 32 0
5 9 12 -30 -32 0
-6 20 -3 33 34 0
-6 20 -3 33 -34 0
-6 20 -3 -33 35 0
-6 20 -3 -33 -35 0
4 15 6 36 37 0
4 15 6 36 -37 0
4 15 6 -36 38 0
4 15 6 -36 -38 0
-4 12 17 39 40 0
-4 12 17 39 -40 0
-4 12 17 -39 41 0
-4 12 17 -39 -41 0
1 -7 -9 42 43 0
1 -7 -9 42 -43 0
1 -7 -9 -42 44 0
1 -7 -9 -42 -44 0
17 6 -12 45 46 0
17 6 -12 45 -46 0
17 6 -12 -45 47 0
17 6 -12 -45 -47 0
18 13 -10 48 49 0
18 13 -10 48 -49 0
18 13 -10 -48 50 0
18 13 -10 -48 -50 0
6 13 20 51 52 0
6 13 20 51 -52 0
6 13 20 -51 53 0
6 13 20 -51 -53 0
-6 -16 9 54 55 0
-6 -16 9 54 -55 0
-6 -16 9 -54 56 0
-6 -16 9 -54 -56 0
-2 -4 -18 57 58 0
-2 -4 -18 57 -58 0
-2 -4 -18 -57 59 0
-2 -4 -18 -57 -59 0
-3 -13 20 60 61 0
-3 -13 20 60 -61 0
-3 -13 20 -60 62 0
-3 -13 20 -60 -62 0
-8 -12 18 63 64 0
-8 -12 18 63 -64 0
-8 -12 18 -63 65 0
-8 -12 18 -63 -65 0
-13 20 18 66 67 0
-13 20 18 66 -67 0
-13 20 18 -66 68 0
-13 20 18 -66 -68 0
15 -17 -4 69 70 0
15 -17 -4 69 -70 0
15 -17 -4 -69 71 0
15 -17 -4 -69 -71 0
11 -15 10 72 73 0
11 -15 10 72 -73 0
11 -15 10 -72 74 0
11 -15 10 -72 -74 0
-9 4 -3 75 76 0
-9 4 -3 75 -76 0
-9 4 -3 -75 77 0
-9 4 -3 -75 -77 0
10 -6 -8 78 79 0
10 -6 -8 78 -79 0
10 -6 -8 -78 80 0
10 -6 -8 -78 -80 0
-3 8 12 81 82 0
-3 8 12 81 -82 0
-3 8 12 -81 83 0
-3 8 12 -81 -83 0
-6 -5 9 84 85 0
-6 -5 9 84 -85 0
-6 -5 9 -84 86 0
-6 -5 9 -84 -86 0
-5 -11 2 87 88 0
-5 -11 2 87 -88 0
-5 -11 2 -87 89 0
-5 -11 2 -87 -89 0
-17 -3 -5 90 91 0
-17 -3 -5 90 -91 0
-17 -3 -5 -90 92 0
-17 -3 -5 -90 -92 0
-20 -16 1 93 94 0
-20 -16 1 93 -94 0
-20 -16 1 -93 95 0
-20 -16 1 -93 -95 0
-12 -9 -16 96 97 0
-12 -9 -16 96 -97 0
-12 -9 -16 -96 98 0
-12 -9 -16 -96 -98 0
6 -8 16 99 100 0
6 -8 16 99 -100 0
6 -8 16 -99 101 0
6 -8 16 -99 -101 0
-18 3 -8 102 103 0
-18 3 -8 102 -103 0
-18 3 -8 -102 104 0
-18 3 -8 -102 -104 0
-8 -5 15 105 106 0
-8 -5 15 105 -106 0
-8 -5 15 -105 107 0
-8 -5 15 -105 -107 0
4 -17 -2 108 109 0
4 -17 -2 108 -109 0
4 -17 -2 -108 110 0
4 -17 -2 -108 -110 0
12 7 8 111 112 0
12 7 8 111 -112 0
12 7 8 -111 113 0
12 7 8 -111 -113 0
-8 -10 3 114 115 0
-8 -10 3 114 -115 0
-8 -10 3 -114 116 0
-8 -10 3 -114 -116 0
14 3 16 117 118 0
14 3 16 117 -118 0
14 3 16 -117 119 0
14 3 16 -117 -119 0
13 9 2 120 121 0
13 9 2 120 -121 0
13 9 2 -120 122 0
13 9 2 -120 -122 0
-9 -2 11 123 124 0
-9 -2 11 123 -124 0
-9 -2 11 -123 125 0
-9 -2 11 -123 -125 0
4 -18 -11 126 127 0
4 -18 -11 126 -127 0
4 -18 -11 -126 128 0
4 -18 -11 -126 -128 0
-18 6 1 129 130 0
-18 6 1 129 -130 0
-18 6 1 -129 131 0
-18 6 1 -129 -131 0
-8 -4 12 132 133 0
-8 -4 12 132 -133 0
-8 -4 12 -132 134 0
-8 -4 12 -132 -134 0
1 13 -9 135 136 0
1 13 -9 135 -136 0
1 13 -9 -135 137 0
1 13 -9 -135 -137 0
7 13 -9 138 139 0
7 13 -9 138 -139 0
7 13 -9 -138 140 0
7 13 -9 -138 -140 0
-8 -20 3 141 142 0
-8 -20 3 141 -142 0
-8 -20 3 -141 143 0
-8 -20 3 -141 -143 0
13 3 1 144 145 0
13 3 1 144 -145 0
13 3 1 -144 146 0
13 3 1 -144 -146 0
14 16 13 147 148 0
14 16 13 147 -148 0
14 16 13 -147 149 0
14 16 13 -147 -149 0
-10 -8 -16 150 151 0
-10 -8 -16 150 -151 0
-10 -8 -16 -150 152 0
-10 -8 -16 -150 -152 0
15 20 -10 153 154 0
15 20 -10 153 -154 0
15 20 -10 -153 155 0
15 20 -10 -153 -155 0
-15 12 11 156 157 0
-15 12 11 156 -157 0
-15 12 11 -156 158 0
-15 12 11 -156 -158 0
-18 20 -10 159 160 0
-18 20 -10 159 -160 0
-18 20 -10 -159 161 0
-18 20 -10 -159 -161 0
-8 1 -13 162 163 0
-8 1 -13 162 -163 0
-8 1 -13 -162 164 0
-8 1 -13 -162 -164 0
-4 -16 8 165 166 0
-4 -16 8 165 -166 0
-4 -16 8 -165 167 0
-4 -16 8 -165 -167 0
17 -8 1 168 169 0
17 -8 1 168 -169 0
17 -8 1 -168 170 0
17 -8 1 -168 -170 0
18 6 16 171 172 0
18 6 16 171 -172 0
18 6 16 -171 173 0
18 6 16 -171 -173 0
15 -1 2 174 175 0
15 -1 2 174 -175 0
15 -1 2 -174 176 0
15 -1 2 -174 -176 0
-2 7 -10 177 178 0
-2 7 -10 177 -178 0
-2 7 -10 -177 179 0
-2 7 -10 -177 -179 0
14 10 11 180 181 0
14 10 11 180 -181 0
14 10 11 -180 182 0
14 10 11 -180 -182 0
2 -5 12 183 184 0
2 -5 12 183 -184 0
2 -5 12 -183 185 0
2 -5 12 -183 -185 0
-7 8 2 186 187 0
-7 8 2 186 -187 0
-7 8 2 -186 188 0
-7 8 2 -186 -188 0
-10 11 -6 189 190 0
-10 11 -6 189 -190 0
-10 11 -6 -189 191 0
-10 11 -6 -189 -191 0
16 -4 10 192 193 0
16 -4 10 192 -193 0
16 -4 10 -192 194 0
16 -4 10 -192 -194 0
-12 -10 5 195 196 0
-12 -10 5 195 -196 0
-12 -10 5 -195 197 0
-12 -10 5 -195 -197 0
-5 4 -8 198 199 0
-5 4 -8 198 -199 0
-5 4 -8 -198 200 0
-5 4 -8 -198 -200 0
-3 13 -16 201 202 0
-3 13 -16 201 -202 0
-3 13 -16 -201 203 0
-3 13 -16 -201 -203 0
8 13 -5 204 205 0
8 13 -5 204 -205 0
8 13 -5 -204 206 0
8 13 -5 -204 -206 0
17 -18 2 207 208 0
17 -18 2 207 -208 0
17 -18 2 -207 209 0
17 -18 2 -207 -209 0
-9 -11 10 210 211 0
-9 -11 10 210 -211 0
-9 -11 10 -210 212 0
-9 -11 10 -210 -212 0
19 15 -7 213 214 0
19 15 -7 213 -214 0
19 15 -7 -213 215 0
19 15 -7 -213 -215 0
-20 13 5 216 217 0
-20 13 5 216 -217 0
-20 13 5 -216 218 0
-20 13 5 -216 -218 0
-14 -17 20 219 220 0
-14 -17 20 219 -220 0
-14 -17 20 -219 221 0
-14 -17 20 -219 -221 0
-17 -14 -19 222 223 0
-17 -14 -19 222 -223 0
-17 -14 -19 -222 224 0
-17 -14 -19 -222 -224 0
20 -7 -10 225 226 0
20 -7 -10 225 -226 0
20 -7 -10 -225 227 0
20 -7 -10 -225 -227 0
-12 18 15 228 229 0
-12 18 15 228 -229 0
-12 18 15 -228 230 0
-12 18 15 -228 -230 0
-11 -4 17 231 232 0
-11 -4 17 231 -232 0
-11 -4 17 -231 233 0
-11 -4 17 -231 -233 0
2 12 -3 234 235 0
2 12 -3 234 -235 0
2 12 -3 -234 236 0
2 12 -3 -234 -236 0
3 7 -14 237 238 0
3 7 -14 237 -238 0
3 7 -14 -237 239 0
3 7 -14 -237 -239 0
20 -5 -19 240 241 0
20 -5 -19 240 -241 0
20 -5 -19 -240 242 0
20 -5 -19 -240 -242 0
8 5 -16 243 244 0
8 5 -16 243 -244 0
8 5 -16 -243 245 0
8 5 -16 -243 -245 0
7 13 3 246 247 0
7 13 3 246 -247 0
7 13 3 -246 248 0
7 13 3 -246 -248 0
-8 9 12 249 250 0
-8 9 12 249 -250 0
-8 9 12 -249 251 0
-8 9 12 -249 -251 0
11 -12 -8 252 253 0
11 -12 -8 252 -253 0
11 -12 -8 -252 254 0
11 -12 -8 -252 -254 0
-15 -12 18 255 256 0
-15 -12 18 255 -256 0
-15 -12 18 -255 257 0
-15 -12 18 -255 -257 0
12 8 -15 258 259 0
12 8 -15 258 -259 0
12 8 -15 -258 260 0
12 8 -15 -258 -260 0
7 -16 -9 261 262 0
7 -16 -9 261 -262 0
7 -16 -9 -261 263 0
7 -16 -9 -261 -263 0
9 -6 -4 264 265 0
9 -6 -4 264 -265 0
9 -6 -4 -264 266 0
9 -6 -4 -264 -266 0
2 6 -4 267 268 0
2 6 -4 267 -268 0
2 6 -4 -267 269 0
2 6 -4 -267 -269 0
-3 -5 8 270 271 0
-3 -5 8 270 -271 0
-3 -5 8 -270 272 0
-3 -5 8 -270 -272 0
-10 14 -4 273 274 0
-10 14 -4 273 -274 0
-10 14 -4 -273 275 0
-10 14 -4 -273 -275 0
-4 -19 9 276 277 0
-4 -19 9 276 -277 0
-4 -19 9 -276 278 0
-4 -19 9 -276 -278 0
1 -2 -8 279 280 0
1 -2 -8 279 -280 0
1 -2 -8 -279 281 0
1 -2 -8 -279 -281 0
-3 -4 -12 282 283 0
-3 -4 -12 282 -283 0
-3 -4 -12 -282 284 0
-3 -4 -12 -282 -284 0
-18 -7 14 285 286 0
-18 -7 14 285 -286 0
-18 -7 14 -285 287 0
-18 -7 14 -285 -287 0
5 -8 7 288 289 0
5 -8 7 288 -289 0
5 -8 7 -288 290 0
5 -8 7 -288 -290 0
-6 9 -16 291 292 0
-6 9 -16 291 -292 0
-6 9 -16 -291 293 0
-6 9 -16 -291 -293 0
294 295 297 301 309 0
294 295 297 301 -309 0
294 295 297 -301 310 0
294 295 297 -301 -310 0
294 295 -297 302 311 0
294 295 -297 302 -311 0
294 295 -297 -302 312 0
294 295 -297 -302 -312 0
294 -295 298 303 313 0
294 -295 298 303 -313 0
294 -295 298 -303 314 0
294 -295 298 -303 -314 0
294 -295 -298 304 315 0
294 -295 -298 304 -315 0
294 -295 -298 -304 316 0
294 -295 -298 -304 -316 0
-294 296 299 305 317 0
-294 296 299 305 -317 0
-294 296 299 -305 318 0
-294 296 299 -305 -318 0
-294 296 -299 306 319 0
-294 296 -299 306 -319 0
-294 296 -299 -306 320 0
-294 296 -299 -306 -320 0
-294 -296 300 307 321 0
-294 -296 300 307 -321 0
-294 -296 300 -307 322 0
-294 -296 300 -307 -322 0
-294 -296 -300 308 323 0
-294 -296 -300 308 -323 0
-294 -296 -300 -308 324 0
-294 -296 -300 -308 -324 0
325 326 328 332 340 0
325 326 328 332 -340 0
325 326 328 -332 341 0
325 326 328 -332 -341 0
325 326 -328 333 342 0
325 326 -328 333 -342 0
325 326 -328 -333 343 0
325 326 -328 -333 -343 0
325 -326 329 334 344 0
325 -326 329 334 -344 0
325 -326 329 -334 345 0
325 -326 329 -334 -345 0
325 -326 -329 335 346 0
325 -326 -329 335 -346 0
325 -326 -329 -335 347 0
325 -326 -329 -335 -347 0
-325 327 330 336 348 0
-325 327 330 336 -348 0
-325 327 330 -336 349 0
-325 327 330 -336 -349 0
-325 327 -330 337 350 0
-325 327 -330 337 -350 0
-325 327 -330 -337 351 0
-325 327 -330 -337 -351 0
-325 -327 331 338 352 0
-325 -327 331 338 -352 0
-325 -327 331 -338 353 0
-325 -327 331 -338 -353 0
-325 -327 -331 339 354 0
-325 -327 -331 339 -354 0
-325 -327 -331 -339 355 0
-325 -327 -331 -339 -355 0
356 357 359 363 371 0
356 357 359 363 -371 0
356 357 359 -363 372 0
356 357 359 -363 -372 0
356 357 -359 364 373 0
356 357 -359 364 -373 0
356 357 -359 -364 374 0
356 357 -359 -364 -374 0
356 -357 360 365 375 0
356 -357 360 365 -375 0
356 -357 360 -365 376 0
356 -357 360 -365 -376 0
356 -357 -360 366 377 0
356 -357 -360 366 -377 0
356 -357 -360 -366 378 0
356 -357 -360 -366 -378 0
-356 358 361 367 379 0
-356 358 361 367 -379 0
-356 358 361 -367 380 0
-356 358 361 -367 -380 0
-356 358 -361 368 381 0
-356 358 -361 368 -381 0
-356 358 -361 -368 382 0
-356 358 -361 -368 -382 0
-356 -358 362 369 383 0
-356 -358 362 369 -383 0
-356 -358 362 -369 384 0
-356 -358 362 -369 -384 0
-356 -358 -362 370 385 0
-356 -358 -362 370 -385 0
-356 -358 -362 -370 386 0
-356 -358 -362 -370 -386 0

